
Starting CP-SAT solver v9.15.6755
Parameters: max_time_in_seconds: 3600 log_search_progress: true num_workers: 4

Initial satisfaction model '': (model_fingerprint: 0xe65cf41ef522ee96)
#Variables: 8'252 (7'864 primary variables)
  - 8'000 Booleans in [0,1]
  - 252 in [0,2]
#kBoolAnd: 7'054 (#enforced: 7'054) (#literals: 21'102)
#kBoolOr: 6'994 (#enforced: 6'994) (#literals: 13'988)
#kLinear2: 1'668 (#enforced: 1'386) (#complex_domain: 472)
#kLinear3: 252
#kLinearN: 137 (#terms: 7'308)

Starting presolve at 0.00s
  2.31e-03s  0.00e+00d  [DetectDominanceRelations] 
  2.13e-02s  0.00e+00d  [PresolveToFixPoint] #num_loops=2 #num_dual_strengthening=1 
  1.62e-04s  0.00e+00d  [ExtractEncodingFromLinear] #potential_supersets=14 #potential_subsets=252 
  5.45e-04s  0.00e+00d  [DetectDuplicateColumns] 
  2.95e-04s  0.00e+00d  [DetectDuplicateConstraints] 
[Symmetry] Graph for symmetry has 44'797 nodes and 96'974 arcs.
[Symmetry] Symmetry computation done. time: 0.0155237 dtime: 0.0338274
[SAT presolve] num removable Booleans: 502 / 8'756
[SAT presolve] num trivial clauses: 0
[SAT presolve] [0s] clauses:25'542 literals:62'326 vars:8'756 one_side_vars:0 simple_definition:6'582 singleton_clauses:0
[SAT presolve] [0.00113818s] clauses:25'542 literals:62'326 vars:8'756 one_side_vars:0 simple_definition:6'582 singleton_clauses:0
[SAT presolve] [0.00161451s] clauses:25'452 literals:62'116 vars:8'726 one_side_vars:0 simple_definition:6'582 singleton_clauses:0
  6.43e-04s  0.00e+00d  [DetectDuplicateConstraintsWithDifferentEnforcements] 
  2.51e-01s  3.32e-01d  [Probe] #probed=12'128 #fixed_bools=2'785 #new_bounds=68 #equiv=772 #new_binary_clauses=38'331 
  1.45e-02s  4.52e-02d  [MaxClique] Merged 14'331 constraints with 30'118 literals into 10'526 constraints with 26'309 literals
  2.76e-03s  0.00e+00d  [DetectDominanceRelations] 
  1.17e-02s  0.00e+00d  [PresolveToFixPoint] #num_loops=2 #num_dual_strengthening=1 
  1.68e-03s  0.00e+00d  [ProcessAtMostOneAndLinear] 
  4.37e-04s  0.00e+00d  [DetectDuplicateConstraints] #duplicates=59 
  3.38e-04s  0.00e+00d  [DetectDuplicateConstraintsWithDifferentEnforcements] 
  2.98e-04s  1.64e-05d  [DetectDominatedLinearConstraints] #relevant_constraints=305 #num_inclusions=2 
  2.09e-04s  0.00e+00d  [DetectDifferentVariables] 
  2.30e-03s  1.79e-04d  [ProcessSetPPC] #relevant_constraints=11'871 #num_inclusions=1'163 
  2.39e-03s  4.74e-04d  [TransformClausesToExactlyOne] #num_amos=5'744 #num_clauses=6'798 #num_transformed=8 #num_checked=6'798 
  2.55e-03s  0.00e+00d  [DetectEncodedComplexDomains] 
  2.34e-04s  1.00e-07d  [FindAlmostIdenticalLinearConstraints] #num_tested_pairs=1 
  1.90e-03s  3.22e-03d  [FindBigAtMostOneAndLinearOverlap] 
  6.62e-04s  1.44e-03d  [FindBigVerticalLinearOverlap] 
  2.00e-04s  2.29e-05d  [FindBigHorizontalLinearOverlap] #linears=119 
  1.03e-03s  1.02e-04d  [MergeClauses] #num_collisions=15 #num_merges=15 #num_saved_literals=30 
  2.78e-03s  0.00e+00d  [DetectDominanceRelations] 
  1.09e-02s  0.00e+00d  [PresolveToFixPoint] #num_loops=1 #num_dual_strengthening=1 
  2.83e-03s  0.00e+00d  [DetectDominanceRelations] 
  9.22e-03s  0.00e+00d  [PresolveToFixPoint] #num_loops=1 #num_dual_strengthening=1 
  4.87e-04s  0.00e+00d  [DetectDuplicateColumns] 
  3.41e-04s  0.00e+00d  [DetectDuplicateConstraints] #duplicates=2 
[Symmetry] Graph for symmetry has 27'562 nodes and 51'129 arcs.
[Symmetry] Symmetry computation done. time: 0.00381021 dtime: 0.00893439
[SAT presolve] num removable Booleans: 351 / 5'169
[SAT presolve] num trivial clauses: 0
[SAT presolve] [0s] clauses:8'733 literals:24'256 vars:5'169 one_side_vars:3585 simple_definition:388 singleton_clauses:0
[SAT presolve] [0.000394691s] clauses:8'733 literals:24'255 vars:5'169 one_side_vars:3585 simple_definition:388 singleton_clauses:0
[SAT presolve] [0.00069457s] clauses:8'709 literals:24'192 vars:5'163 one_side_vars:3585 simple_definition:387 singleton_clauses:0
  7.06e-04s  0.00e+00d  [DetectDuplicateConstraintsWithDifferentEnforcements] 
  2.00e-01s  2.42e-01d  [Probe] #probed=11'941 #fixed_bools=26 #new_bounds=1 #equiv=2 #new_binary_clauses=17'973 
  1.60e-02s  5.66e-02d  [MaxClique] Merged 5'716 constraints with 15'973 literals into 5'224 constraints with 15'335 literals
  2.82e-03s  0.00e+00d  [DetectDominanceRelations] 
  9.76e-03s  0.00e+00d  [PresolveToFixPoint] #num_loops=2 #num_dual_strengthening=1 
  1.73e-03s  0.00e+00d  [ProcessAtMostOneAndLinear] 
  3.86e-04s  0.00e+00d  [DetectDuplicateConstraints] 
  3.72e-04s  0.00e+00d  [DetectDuplicateConstraintsWithDifferentEnforcements] 
  3.38e-04s  1.63e-05d  [DetectDominatedLinearConstraints] #relevant_constraints=304 #num_inclusions=2 
  2.49e-04s  0.00e+00d  [DetectDifferentVariables] 
  2.57e-03s  1.82e-04d  [ProcessSetPPC] #relevant_constraints=12'054 #num_inclusions=1'118 
  2.73e-03s  4.90e-04d  [TransformClausesToExactlyOne] #num_amos=5'215 #num_clauses=6'733 #num_checked=6'733 
  2.74e-03s  0.00e+00d  [DetectEncodedComplexDomains] 
  3.14e-04s  5.00e-08d  [FindAlmostIdenticalLinearConstraints] #num_tested_pairs=1 
  2.16e-03s  3.24e-03d  [FindBigAtMostOneAndLinearOverlap] 
  6.86e-04s  1.43e-03d  [FindBigVerticalLinearOverlap] 
  2.31e-04s  2.28e-05d  [FindBigHorizontalLinearOverlap] #linears=119 
  1.14e-03s  1.01e-04d  [MergeClauses] #num_collisions=16 #num_merges=16 #num_saved_literals=32 
  2.90e-03s  0.00e+00d  [DetectDominanceRelations] 
  9.80e-03s  0.00e+00d  [PresolveToFixPoint] #num_loops=1 #num_dual_strengthening=1 
  3.17e-03s  0.00e+00d  [DetectDominanceRelations] 
  9.64e-03s  0.00e+00d  [PresolveToFixPoint] #num_loops=1 #num_dual_strengthening=1 
  5.73e-04s  0.00e+00d  [DetectDuplicateColumns] 
  3.99e-04s  0.00e+00d  [DetectDuplicateConstraints] #duplicates=1 
[Symmetry] Graph for symmetry has 27'627 nodes and 50'096 arcs.
[Symmetry] Symmetry computation done. time: 0.00421882 dtime: 0.00895666
[SAT presolve] num removable Booleans: 156 / 5'135
[SAT presolve] num trivial clauses: 0
[SAT presolve] [0s] clauses:7'944 literals:22'621 vars:5'134 one_side_vars:3566 simple_definition:386 singleton_clauses:0
[SAT presolve] [0.000336067s] clauses:7'943 literals:22'614 vars:5'134 one_side_vars:3566 simple_definition:387 singleton_clauses:0
[SAT presolve] [0.000623899s] clauses:7'939 literals:22'602 vars:5'133 one_side_vars:3566 simple_definition:387 singleton_clauses:0
  1.16e-03s  0.00e+00d  [DetectDuplicateConstraintsWithDifferentEnforcements] 
  2.09e-01s  2.41e-01d  [Probe] #probed=11'926 #fixed_bools=2 #equiv=2 #new_binary_clauses=18'129 
  1.75e-02s  5.98e-02d  [MaxClique] Merged 5'218 constraints with 15'274 literals into 5'195 constraints with 15'251 literals
  3.17e-03s  0.00e+00d  [DetectDominanceRelations] 
  1.10e-02s  0.00e+00d  [PresolveToFixPoint] #num_loops=1 #num_dual_strengthening=1 
  2.01e-03s  0.00e+00d  [ProcessAtMostOneAndLinear] 
  5.98e-04s  0.00e+00d  [DetectDuplicateConstraints] 
  4.71e-04s  0.00e+00d  [DetectDuplicateConstraintsWithDifferentEnforcements] 
  3.93e-04s  1.63e-05d  [DetectDominatedLinearConstraints] #relevant_constraints=304 #num_inclusions=2 
  3.00e-04s  0.00e+00d  [DetectDifferentVariables] 
  2.47e-03s  1.81e-04d  [ProcessSetPPC] #relevant_constraints=12'036 #num_inclusions=1'103 
  2.52e-03s  4.90e-04d  [TransformClausesToExactlyOne] #num_amos=5'195 #num_clauses=6'719 #num_checked=6'719 
  2.48e-03s  0.00e+00d  [DetectEncodedComplexDomains] 
  3.27e-04s  1.30e-07d  [FindAlmostIdenticalLinearConstraints] #num_tested_pairs=2 
  2.05e-03s  3.26e-03d  [FindBigAtMostOneAndLinearOverlap] 
  6.74e-04s  1.43e-03d  [FindBigVerticalLinearOverlap] 
  2.58e-04s  2.28e-05d  [FindBigHorizontalLinearOverlap] #linears=119 
  1.12e-03s  1.01e-04d  [MergeClauses] #num_collisions=14 #num_merges=14 #num_saved_literals=28 
  3.28e-03s  0.00e+00d  [DetectDominanceRelations] 
  1.09e-02s  0.00e+00d  [PresolveToFixPoint] #num_loops=1 #num_dual_strengthening=1 
  2.22e-04s  0.00e+00d  [MergeNoOverlap] 
  2.42e-04s  0.00e+00d  [MergeNoOverlap2D] 

Presolve summary:
  - 797 affine relations were detected.
  - rule 'TODO dual: only one blocking constraint?' was applied 249 times.
  - rule 'TODO linear2: contains a boolean' was applied 216 times.
  - rule 'affine: new relation' was applied 797 times.
  - rule 'at_most_one: empty or all false' was applied 183 times.
  - rule 'at_most_one: removed literals' was applied 2'618 times.
  - rule 'at_most_one: satisfied' was applied 2'770 times.
  - rule 'at_most_one: size one' was applied 2'330 times.
  - rule 'at_most_one: transformed into max clique' was applied 3 times.
  - rule 'bool_and: x => x' was applied 72 times.
  - rule 'bool_or: always true' was applied 3'601 times.
  - rule 'bool_or: implications' was applied 1'117 times.
  - rule 'bool_or: removed enforcement literal' was applied 4'251 times.
  - rule 'clauses: transformed into exactly one' was applied 8 times.
  - rule 'deductions: 2338 stored' was applied 1 time.
  - rule 'duplicate: removed constraint' was applied 62 times.
  - rule 'enforcement: false literal' was applied 221 times.
  - rule 'enforcement: true literal' was applied 204 times.
  - rule 'exactly_one: removed literals' was applied 14 times.
  - rule 'exactly_one: satisfied' was applied 1 time.
  - rule 'linear + amo: fixed literal implied by enforcement' was applied 1 time.
  - rule 'linear1: transformed to implication' was applied 8 times.
  - rule 'linear2: convert ax + by != cte to clauses' was applied 741 times.
  - rule 'linear2: convert implied ax + by == cte to clauses' was applied 472 times.
  - rule 'linear: always true' was applied 32 times.
  - rule 'linear: divide by GCD' was applied 1 time.
  - rule 'linear: empty' was applied 250 times.
  - rule 'linear: enforcement literal in expression' was applied 8 times.
  - rule 'linear: extracted at most one (max)' was applied 91 times.
  - rule 'linear: fixed or dup variables' was applied 434 times.
  - rule 'linear: negative equal one' was applied 1 time.
  - rule 'linear: positive equal one' was applied 14 times.
  - rule 'linear: remapped using affine relations' was applied 114 times.
  - rule 'new_bool: integer encoding' was applied 756 times.
  - rule 'presolve: 2862 unused variables removed.' was applied 1 time.
  - rule 'presolve: iteration' was applied 3 times.
  - rule 'probing: bool_or reduced to implication' was applied 2'489 times.
  - rule 'setppc: bool_or in at_most_one' was applied 8 times.
  - rule 'setppc: removed dominated constraints' was applied 8 times.
  - rule 'variables: add encoding constraint' was applied 756 times.
  - rule 'variables: canonicalize domain' was applied 1 time.
  - rule 'variables: detected fully encoded domain' was applied 3 times.

Presolved satisfaction model '': (model_fingerprint: 0x2e469189b0412a77)
#Variables: 5'313 (5'025 primary variables)
  - 5'130 Booleans in [0,1]
  - 183 in [0,2]
#kAtMostOne: 4'004 (#literals: 12'864)
#kBoolAnd: 1'021 (#enforced: 1'021) (#literals: 2'212)
#kBoolAndClauses: 13 (#enforced: 13 #multi: 13) (#literals: 53)
#kBoolOr: 6'692 (#literals: 20'076)
#kExactlyOne: 22 (#literals: 212)
#kLinear1: 1'098 (#enforced: 1'098)
#kLinear2: 334 (#enforced: 332)
#kLinear3: 183
#kLinearN: 119 (#terms: 4'562)
[Symmetry] Graph for symmetry has 23'910 nodes and 50'026 arcs.
[Symmetry] Symmetry computation done. time: 0.00395409 dtime: 0.00876428

Preloading model.
#Model   0.95s var:5313/5313 constraints:13486/13486

Starting search at 0.95s with 4 workers.
3 full problem subsolvers: [default_lp, max_lp, no_lp]
1 first solution subsolver: [fj]
2 interleaved subsolvers: [feasibility_pump, rins/rens]
2 helper subsolvers: [neighborhood_helper, synchronization_agent]

#Model   2.01s var:5305/5313 constraints:13486/13486
#Model   2.17s var:5304/5313 constraints:13486/13486
#Model   2.31s var:5303/5313 constraints:13486/13486
#Model   3.27s var:5221/5313 constraints:13339/13486
#Model   3.28s var:5207/5313 constraints:13324/13486
#Model   3.36s var:5204/5313 constraints:13320/13486
#Model   3.70s var:5187/5313 constraints:13294/13486
#Model   3.93s var:5186/5313 constraints:13294/13486
#Model   8.99s var:5183/5313 constraints:13294/13486
#Model   9.07s var:5179/5313 constraints:13291/13486
#Model   9.26s var:5174/5313 constraints:13279/13486
#Model   9.55s var:5173/5313 constraints:13278/13486
#Model   9.63s var:5172/5313 constraints:13278/13486
#Model   9.69s var:5171/5313 constraints:13278/13486
#Model  10.49s var:5170/5313 constraints:13278/13486
#Model  10.57s var:5164/5313 constraints:13278/13486
#Model  13.14s var:5162/5313 constraints:13278/13486
#Model  13.63s var:5161/5313 constraints:13277/13486
#Model  15.16s var:5150/5313 constraints:13245/13486
#Model  15.89s var:5147/5313 constraints:13244/13486
#Model  16.65s var:5146/5313 constraints:13243/13486
#Model  20.57s var:5145/5313 constraints:13243/13486
